
Gurobi 11.0.3 (linux64) logging started Mon Aug 25 15:03:39 2025

Set parameter LogFile to value "/home/yihong/Coding/OR_SUC/SUC_epstheta_results_bigM100000_thread4/case24_ieee_rts_theta0.1_epsilon0.1_gurobi_seed130000_num_gen100_N_WDR50_load_scaling_factor1_proposed_eps_T6quadra_cost_bc1.01.txt"
Set parameter TimeLimit to value 3600
Gurobi Optimizer version 11.0.3 build v11.0.3rc0 (linux64 - "Ubuntu 20.04.6 LTS")

CPU model: AMD EPYC 7532 32-Core Processor, instruction set [SSE2|AVX|AVX2]
Thread count: 64 physical cores, 128 logical processors, using up to 4 threads

Academic license 2399124 - for non-commercial use only - registered to yi___@ed.ac.uk
Optimize a model with 13966 rows, 7491 columns and 327526 nonzeros
Model fingerprint: 0x41f963dc
Model has 600 quadratic constraints
Variable types: 6891 continuous, 600 integer (600 binary)
Coefficient statistics:
  Matrix range     [3e-04, 2e+03]
  QMatrix range    [2e-03, 8e-03]
  QLMatrix range   [2e-01, 6e+01]
  Objective range  [1e+00, 1e+00]
  Bounds range     [1e+00, 1e+00]
  RHS range        [1e+00, 9e+03]
Presolve removed 11491 rows and 3283 columns
Presolve time: 0.09s
Presolved: 2475 rows, 4208 columns, 14348 nonzeros
Presolved model has 600 quadratic constraint(s)
Variable types: 3608 continuous, 600 integer (600 binary)

Root relaxation: objective 6.916509e+03, 2001 iterations, 0.03 seconds (0.04 work units)

    Nodes    |    Current Node    |     Objective Bounds      |     Work
 Expl Unexpl |  Obj  Depth IntInf | Incumbent    BestBd   Gap | It/Node Time

     0     0 6916.50859    0    6          - 6916.50859      -     -    0s
     0     0 104310.101    0  156          - 104310.101      -     -    0s
     0     0 104312.527    0  156          - 104312.527      -     -    0s
     0     0 175422.274    0  102          - 175422.274      -     -    0s
     0     0 175450.452    0   84          - 175450.452      -     -    0s
     0     0 175450.632    0   84          - 175450.632      -     -    0s
     0     0 175450.632    0   84          - 175450.632      -     -    0s
     0     2 175450.680    0   84          - 175450.680      -     -    0s
H  111   116                    175453.73619 175453.384  0.00%   8.3    1s
*  111   116              47    175453.73619 175453.384  0.00%   8.3    1s

Cutting planes:
  Gomory: 82
  Implied bound: 152
  MIR: 12
  Flow cover: 53

Explored 123 nodes (5930 simplex iterations) in 1.29 seconds (1.26 work units)
Thread count was 4 (of 128 available processors)

Solution count 2: 175454 175454 

Optimal solution found (tolerance 1.00e-03)
Warning: max constraint violation (3.1623e-07) exceeds tolerance
Best objective 1.754537361947e+05, best bound 1.754533836751e+05, gap 0.0002%

Gurobi 11.0.3 (linux64) logging started Mon Aug 25 15:03:40 2025

Set parameter LogFile to value "/home/yihong/Coding/OR_SUC/SUC_epstheta_results_bigM100000_thread4/case24_ieee_rts_theta0.1_epsilon0.1_gurobi_seed130000_num_gen100_N_WDR50_load_scaling_factor1_proposed_eps_T6quadra_cost_bc1.01.txt"
Set parameter TimeLimit to value 3600
Gurobi Optimizer version 11.0.3 build v11.0.3rc0 (linux64 - "Ubuntu 20.04.6 LTS")

CPU model: AMD EPYC 7532 32-Core Processor, instruction set [SSE2|AVX|AVX2]
Thread count: 64 physical cores, 128 logical processors, using up to 4 threads

Academic license 2399124 - for non-commercial use only - registered to yi___@ed.ac.uk
Optimize a model with 13966 rows, 7492 columns and 329335 nonzeros
Model fingerprint: 0x61254d53
Model has 601 quadratic constraints
Variable types: 6892 continuous, 600 integer (600 binary)
Coefficient statistics:
  Matrix range     [3e-04, 2e+03]
  QMatrix range    [2e-03, 5e+01]
  QLMatrix range   [2e-01, 6e+01]
  Objective range  [1e+00, 1e+00]
  Bounds range     [1e-01, 1e+00]
  RHS range        [1e+00, 2e+05]
  QRHS range       [5e+00, 5e+00]
Presolve removed 10509 rows and 2793 columns
Presolve time: 0.09s
Presolved: 4059 rows, 5299 columns, 21687 nonzeros
Presolved model has 600 quadratic constraint(s)
Presolved model has 1 bilinear constraint(s)

Solving non-convex MIQCP

Variable types: 4695 continuous, 604 integer (604 binary)

Root relaxation: objective 1.491423e-03, 5134 iterations, 0.19 seconds (0.24 work units)

    Nodes    |    Current Node    |     Objective Bounds      |     Work
 Expl Unexpl |  Obj  Depth IntInf | Incumbent    BestBd   Gap | It/Node Time

     0     0    0.00149    0    7          -    0.00149      -     -    0s
     0     0    0.00149    0    7          -    0.00149      -     -    0s
     0     0    0.00149    0    7          -    0.00149      -     -    0s
     0     0    0.00149    0    7          -    0.00149      -     -    0s
     0     0    0.00219    0    7          -    0.00219      -     -    0s
H    0     0                       0.0319417    0.00219  93.2%     -    4s
     0     1    0.03186    0   13    0.03194    0.03186  0.26%     -    4s

Cutting planes:
  Implied bound: 5
  RLT: 1

Explored 5 nodes (5824 simplex iterations) in 4.96 seconds (3.43 work units)
Thread count was 4 (of 128 available processors)

Solution count 1: 0.0319417 

Optimal solution found (tolerance 1.00e-03)
Best objective 3.194169417941e-02, best bound 3.193734629605e-02, gap 0.0136%
